Co2 O2
1.0
        3.2619082928         0.0000000000         0.0000000000
        1.6309540272         2.8248952399         0.0000000000
        1.6309539523        -0.9416317034         5.2582277052
   Co    O
    2    2
Cartesian
     3.261907978         1.883263536         5.251854729
     1.630952364         0.941630786         2.622840855
     1.630952449         0.941632664         0.663314910
     3.261908115         1.883263576         3.293001920
