Server version 2017.05.18. K-point grid has 24 total points and 10 distinct points. Actual minimum periodic distance is 12.226419875349718 Angstroms. Grid does not include gamma point. 
10
Fractional
0.50000000000000 0.83333333333333 1.00000000000000 2.0 ! 1
0.62500000000000 0.66666666666667 0.62500000000000 4.0 ! 2
0.75000000000000 0.50000000000000 0.25000000000000 2.0 ! 3
0.87500000000000 0.33333333333333 0.87500000000000 4.0 ! 4
0.00000000000000 0.16666666666667 0.50000000000000 2.0 ! 5
0.12500000000000 0.00000000000000 0.12500000000000 2.0 ! 6
0.25000000000000 0.83333333333333 0.75000000000000 4.0 ! 7
0.50000000000000 0.50000000000000 0.00000000000000 1.0 ! 8
0.62500000000000 0.00000000000000 0.62500000000000 2.0 ! 9
0.00000000000000 0.50000000000000 0.50000000000000 1.0 ! 10
Tetrahedra
37    0.006944444444444444
4    1   1   6   9   
4    1   2   4   5   
4    1   2   4   7   
8    1   2   4   8   
4    1   2   5   9   
4    1   2   7   9   
4    1   4   5   6   
4    1   4   6   7   
4    1   5   6   9   
4    1   6   7   9   
4    2   2   3   3   
4    2   2   3   7   
2    2   2   3   8   
2    2   2   3   10   
2    2   2   7   7   
2    2   2   8   10   
8    2   3   4   7   
4    2   3   4   8   
4    2   3   4   10   
4    2   4   5   7   
8    2   4   5   10   
4    2   4   8   10   
4    2   5   7   9   
4    2   7   7   9   
4    3   3   4   4   
4    3   4   4   7   
2    3   4   4   8   
2    3   4   4   10   
2    4   4   7   7   
2    4   4   8   10   
4    4   5   6   7   
4    4   6   7   7   
4    5   5   6   9   
4    5   6   7   9   
4    6   6   7   7   
4    6   7   7   9   
4    7   7   9   9   
