Ni1 O2
1.0
        4.8754000664         0.0000000000         0.0000000000
        0.0000000000         2.8141000271         0.0000000000
       -3.2680774749         0.0000000000         4.5253056414
   Ni    O
    2    4
Cartesian
     0.000000000         0.000000000         0.000000000
     2.437700033         1.407050014         0.000000000
     1.648646319         0.000000000         1.045345631
    -0.041323873         0.000000000         3.479960010
     4.086346498         1.407050014         1.045345631
    -2.479023761         1.407050014         3.479960010
