&CONTROL
calculation                    = 'scf' 
pseudo_dir                     = '/Users/kayahan/PycharmProjects/CASINO-python/example/runs/NiO2/OPT/psps' 
wf_collect                     = 'True' 
title                          = 'generic.qe' 
/
&SYSTEM
nspin                          = 2 
ecutwfc                        = 'None' 
input_dft                      = 'lda' 
nosym_evc                      = 'True' 
noinv                          = 'True' 
occupations                    = 'smearing' 
ibrav                          = 0 
nosym                          = 'True' 
degauss                        = 0.02 
starting_magnetization         = 0.7 
nat                            = 6 
ntyp                           = 2 
/
&ELECTRONS
electron_maxstep               = 500 
startingwfc                    = 'random' 
/
&CELL cubic
4.8754000664     0.0000000000     0.0000000000   
0.0000000000     2.8141000271     0.0000000000   
-3.2680774749    0.0000000000     4.5253056414   
/
ATOMIC_SPECIES
Ni     58.6934000000    Ni.OPT.upf     
Ni     58.6934000000    Ni.OPT.upf     
Ni     58.6934000000    Ni.OPT.upf     
O      15.9994000000    O.OPT.upf      
O      15.9994000000    O.OPT.upf      
O      15.9994000000    O.OPT.upf      
/
ATOMIC_POSITIONS angstrom
Ni   0.0000000000     0.0000000000     0.0000000000   
Ni   2.4377000330     1.4070500140     0.0000000000   
O    1.6486463190     0.0000000000     1.0453456310   
O    -0.0413238730    0.0000000000     3.4799600100   
O    4.0863464980     1.4070500140     1.0453456310   
O    -2.4790237610    1.4070500140     3.4799600100   
/
K_POINTS crystal
16
0.0000000000    0.0000000000    0.0000000000    0.0625000000   
0.5000000000    0.0000000000    0.0000000000    0.0625000000   
0.0000000000    0.2500000000    0.0000000000    0.0625000000   
0.0000000000    0.0000000000    0.5000000000    0.0625000000   
0.5000000000    0.2500000000    0.0000000000    0.0625000000   
0.5000000000    0.0000000000    0.5000000000    0.0625000000   
0.0000000000    0.2500000000    0.5000000000    0.0625000000   
0.5000000000    0.2500000000    0.5000000000    0.0625000000   
0.0000000000    0.5000000000    0.0000000000    0.0625000000   
0.5000000000    0.5000000000    0.0000000000    0.0625000000   
0.0000000000    0.7500000000    0.0000000000    0.0625000000   
0.0000000000    0.5000000000    0.5000000000    0.0625000000   
0.5000000000    0.7500000000    0.0000000000    0.0625000000   
0.5000000000    0.5000000000    0.5000000000    0.0625000000   
0.0000000000    0.7500000000    0.5000000000    0.0625000000   
0.5000000000    0.7500000000    0.5000000000    0.0625000000   
