&CONTROL
calculation                    = 'scf' 
pseudo_dir                     = '/Users/kayahan/PycharmProjects/CASINO-python/example/runs/NiO2/OPT/psps' 
wf_collect                     = 'True' 
title                          = 'generic.qe' 
/
&SYSTEM
nspin                          = 2 
ecutwfc                        = 280 
input_dft                      = 'lda' 
nosym_evc                      = 'True' 
noinv                          = 'True' 
occupations                    = 'smearing' 
ibrav                          = 0 
nosym                          = 'True' 
degauss                        = 0.02 
starting_magnetization         = 0.7 
nat                            = 6 
ntyp                           = 2 
/
&ELECTRONS
electron_maxstep               = 500 
startingwfc                    = 'random' 
/
CELL_PARAMETERS angstrom
4.8754000664     0.0000000000     0.0000000000   
0.0000000000     2.8141000271     0.0000000000   
-3.2680774749    0.0000000000     4.5253056414   

ATOMIC_SPECIES
Ni     58.6934000000    Ni.OPT.upf     
Ni     58.6934000000    Ni.OPT.upf     
O      15.9994000000    O.OPT.upf      
O      15.9994000000    O.OPT.upf      

ATOMIC_POSITIONS angstrom
Ni   0.0000000000     0.0000000000     0.0000000000   
Ni   2.4377000330     1.4070500140     0.0000000000   
O    1.6486463190     0.0000000000     1.0453456310   
O    -0.0413238730    0.0000000000     3.4799600100   
O    4.0863464980     1.4070500140     1.0453456310   
O    -2.4790237610    1.4070500140     3.4799600100   

K_POINTS crystal
40
0.9444444444 0.4166666667 0.3611111111 0.0185185185
0.0000000000 0.3333333333 0.2500000000 0.0092592593
0.0555555556 0.2500000000 0.1388888889 0.0092592593
0.1111111111 0.1666666667 0.0277777778 0.0185185185
0.1666666667 0.0833333333 0.4166666667 0.0185185185
0.2222222222 0.0000000000 0.3055555556 0.0092592593
0.2777777778 0.4166666667 0.1944444444 0.0185185185
0.3333333333 0.3333333333 0.0833333333 0.0185185185
0.3888888889 0.2500000000 0.4722222222 0.0092592593
0.4444444444 0.1666666667 0.3611111111 0.0185185185
0.5000000000 0.0833333333 0.2500000000 0.0092592593
0.5555555556 0.0000000000 0.1388888889 0.0092592593
0.6111111111 0.4166666667 0.0277777778 0.0185185185
0.7222222222 0.2500000000 0.3055555556 0.0092592593
0.7777777778 0.1666666667 0.1944444444 0.0185185185
0.8888888889 0.0000000000 0.4722222222 0.0092592593
0.0000000000 0.0000000000 0.2500000000 0.0046296296
0.1666666667 0.2500000000 0.4166666667 0.0092592593
0.3333333333 0.0000000000 0.0833333333 0.0092592593
0.5000000000 0.2500000000 0.2500000000 0.0046296296
0.9444444444 0.9166666667 0.8611111111 0.0185185185
0.0000000000 0.8333333333 0.7500000000 0.0092592593
0.0555555556 0.7500000000 0.6388888889 0.0092592593
0.1111111111 0.6666666667 0.5277777778 0.0185185185
0.1666666667 0.5833333333 0.9166666667 0.0185185185
0.2222222222 0.5000000000 0.8055555556 0.0092592593
0.2777777778 0.9166666667 0.6944444444 0.0185185185
0.3333333333 0.8333333333 0.5833333333 0.0185185185
0.3888888889 0.7500000000 0.9722222222 0.0092592593
0.4444444444 0.6666666667 0.8611111111 0.0185185185
0.5000000000 0.5833333333 0.7500000000 0.0092592593
0.5555555556 0.5000000000 0.6388888889 0.0092592593
0.6111111111 0.9166666667 0.5277777778 0.0185185185
0.7222222222 0.7500000000 0.8055555556 0.0092592593
0.7777777778 0.6666666667 0.6944444444 0.0185185185
0.8888888889 0.5000000000 0.9722222222 0.0092592593
0.0000000000 0.5000000000 0.7500000000 0.0046296296
0.1666666667 0.7500000000 0.9166666667 0.0092592593
0.3333333333 0.5000000000 0.5833333333 0.0092592593
0.5000000000 0.7500000000 0.7500000000 0.0046296296
