&CONTROL
calculation                    = 'scf' 
pseudo_dir                     = '/Users/kayahan/PycharmProjects/CASINO-python/example/runs/CoO2/OPT/psps' 
wf_collect                     = 'True' 
title                          = 'generic.qe' 
/
&SYSTEM
nspin                          = 2 
ecutwfc                        = 280 
input_dft                      = 'lda' 
nosym_evc                      = 'True' 
noinv                          = 'True' 
occupations                    = 'smearing' 
ibrav                          = 0 
nosym                          = 'True' 
degauss                        = 0.02 
starting_magnetization         = 0.7 
nat                            = 4 
ntyp                           = 2 
/
&ELECTRONS
electron_maxstep               = 500 
startingwfc                    = 'random' 
/
&CELL cubic
3.2619082928     0.0000000000     0.0000000000   
1.6309540272     2.8248952399     0.0000000000   
1.6309539523     -0.9416317034    5.2582277052   
/
ATOMIC_SPECIES
Co     58.9332000000    Co.OPT.upf     
Co     58.9332000000    Co.OPT.upf     
O      15.9994000000    O.OPT.upf      
O      15.9994000000    O.OPT.upf      
/
ATOMIC_POSITIONS angstrom
Co   3.2619079780     1.8832635360     5.2518547290   
Co   1.6309523640     0.9416307860     2.6228408550   
O    1.6309524490     0.9416326640     0.6633149100   
O    3.2619081150     1.8832635760     3.2930019200   
/
K_POINTS crystal
12
0.0000000000 0.0000000000 0.7500000000 0.0204081633
0.0000000000 0.1428571429 0.5357142857 0.0612244898
0.0000000000 0.2857142857 0.3214285714 0.0612244898
0.0000000000 0.4285714286 0.1071428571 0.0612244898
0.0000000000 0.1428571429 0.0357142857 0.0612244898
0.0000000000 0.2857142857 0.8214285714 0.0612244898
0.0000000000 0.4285714286 0.6071428571 0.0612244898
0.8571428571 0.1428571429 0.1071428571 0.1224489796
0.8571428571 0.2857142857 0.8928571429 0.1224489796
0.8571428571 0.4285714286 0.6785714286 0.1224489796
0.8571428571 0.5714285714 0.4642857143 0.1224489796
0.7142857143 0.2857142857 0.4642857143 0.1224489796