Co2
1.0
        2.5007829666         0.0000000000         0.0000000000
        1.2503910257         2.1657421179         0.0000000000
        0.0000000000         0.0000000000         4.0333309174
   Co
    2
Cartesian
     1.250392561         0.721913286         3.024998188
     2.500781320         1.443828767         1.008332729
