Li2
1.0
        3.4909999371         0.0000000000         0.0000000000
        0.0000000000         3.4909999371         0.0000000000
        0.0000000000         0.0000000000         3.4909999371
   Li
    2
Cartesian
     0.000000000         0.000000000         0.000000000
     1.745499969         1.745499969         1.745499969
